n_res = 4;
rcap = [16, 17, 45, 53];
rtype = [1, 1, 2, 2];
n_tasks = 10;
modes = [ {1, 2, 3}, {4, 5, 6}, {7, 8, 9}, {10, 11, 12}, {13, 14, 15}, {16, 17, 18}, {19, 20, 21}, {22, 23, 24}, {25, 26, 27}, {28, 29, 30} ];
succ = [ {4}, {8, 9}, {10}, {5, 6, 7}, {9}, {8, 9, 10}, {10}, {}, {}, {} ];
n_opt = 30;
dur = [6, 7, 10, 1, 4, 10, 1, 3, 4, 1, 3, 4, 1, 9, 10, 1, 7, 9, 1, 4, 6, 4, 5, 9, 1, 3, 5, 2, 2, 10];
rreq = [|  7,  5,  4,  9,  4,  4,  7,  6,  5, 10,  5,  5,  8,  7,  6,  5,  4,  4,  5,  5,  4,  8,  7,  7,  9,  8,  6,  7,  8,  6
        | 10,  9,  7,  1,  1,  1,  4,  2,  1,  9,  8,  4,  9,  6,  4,  8,  8,  4,  9,  8,  6,  8,  5,  4,  9,  6,  2,  6,  7,  3
        |  8,  8,  6,  6,  6,  3, 10,  7,  3,  4,  3,  3,  6,  6,  4,  5,  4,  4,  3,  3,  2,  7,  6,  6,  6,  4,  1,  8,  8,  8
        |  7,  6,  6,  8,  8,  8,  5,  4,  1,  8,  7,  7,  7,  5,  4,  2,  1,  1,  7,  6,  5,  9,  8,  7,  9,  8,  6,  6,  5,  4 |];
